(set-logic QF_S)
(declare-fun var0 () String)
(declare-fun var1 () String)
(declare-fun var2 () Int)
(declare-fun var3 () String)
(declare-fun var4 () Int)
(declare-fun var5 () Int)
(declare-fun var6 () String)
(declare-fun var7 () Int)
(assert (<= (str.indexof var0 var1 var2) (str.to.int var3)))
(assert (>= var4 var5))
(assert (<= (str.len var6) (str.indexof var6 var0 var7)))
(assert (>= var2 37))
(check-sat)